
Gurobi 12.0.2 (win64) logging started Mon Nov  3 17:48:09 2025

Set parameter LogFile to value "resultados DATA_1_n30m05b2d2\instancia_9_log.txt"
Set parameter TimeLimit to value 1800
Gurobi Optimizer version 12.0.2 build v12.0.2rc0 (win64 - Windows 10.0 (19045.2))

CPU model: Intel(R) Core(TM) i5-6300U CPU @ 2.40GHz, instruction set [SSE2|AVX|AVX2]
Thread count: 2 physical cores, 4 logical processors, using up to 4 threads

Non-default parameters:
TimeLimit  1800

Optimize a model with 85 rows, 65 columns and 1801 nonzeros
Model fingerprint: 0xbfcfcdeb
Variable types: 0 continuous, 65 integer (65 binary)
Coefficient statistics:
  Matrix range     [1e+00, 1e+00]
  Objective range  [9e-02, 2e-01]
  Bounds range     [1e+00, 1e+00]
  RHS range        [1e+00, 2e+00]
Found heuristic solution: objective 0.5339630
Presolve removed 70 rows and 49 columns
Presolve time: 0.00s
Presolved: 15 rows, 16 columns, 67 nonzeros
Found heuristic solution: objective 0.3538889
Variable types: 0 continuous, 16 integer (16 binary)

Root relaxation: objective 5.474815e-01, 15 iterations, 0.00 seconds (0.00 work units)

    Nodes    |    Current Node    |     Objective Bounds      |     Work
 Expl Unexpl |  Obj  Depth IntInf | Incumbent    BestBd   Gap | It/Node Time

     0     0    0.54748    0    8    0.53396    0.54748  2.53%     -    0s
     0     0     cutoff    0         0.53396    0.53396  0.00%     -    0s

Explored 1 nodes (20 simplex iterations) in 0.03 seconds (0.00 work units)
Thread count was 4 (of 4 available processors)

Solution count 2: 0.533963 0.353889 
No other solutions better than 0.533963

Optimal solution found (tolerance 1.00e-04)
Best objective 5.339629629630e-01, best bound 5.339629629630e-01, gap 0.0000%
